NAME : portcgen-28-31
COMMENT : portcgen N=28, seed=31
TYPE : TSP
DIMENSION : 28
EDGE_WEIGHT_TYPE : EUC_2D
NODE_COORD_SECTION
1 -82546 111146
2 -221741 -12695
3 -65615 -182291
4 37745 83171
5 -310078 -242037
6 83104 -188903
7 222853 -186052
8 -149235 186751
9 -31136 44430
10 -368740 -139546
11 -155058 -209525
12 -151762 -64096
13 14536 -445310
14 -120449 108854
15 -34123 52401
16 -278960 220605
17 457280 144006
18 -49172 238719
19 -7968 237735
20 179137 109785
21 175978 -216760
22 -239909 -144482
23 214189 -205802
24 52755 328848
25 -220088 87312
26 95089 -254899
27 122222 360112
28 -319637 -395896
